(declare-const a Real)
(declare-const b Real)
(declare-const c Real)
(assert (= (+ a b c) 3))
(assert (> a 0))
(assert (> b 0))
(assert (> c 0))
(assert (not (<= (+ (* (pow (+ (* 4831838208 (pow b 3)) (* 995328 c (pow (+ (* 2 a) (* 2 b)) 4))) -1) (pow (+ (* 995328 c (pow (+ (* 2 a) (* 2 b)) 4)) (* 2013265920 c (pow b 3)) (* 2818572288 a (pow b 3))) 2)) (* -9261023232 a (pow c 4)) (* -9261023232 b (pow a 4)) (* -8803319808 c (pow b 4)) (* -3087007744 a (pow b 4)) (* -3087007744 b (pow c 4)) (* -2818572288 (pow a 2) (pow c 3)) (* -2818572288 (pow a 3) (pow b 2)) (* -2629304320 c (pow a 4)) (* 2818572288 (pow b 2) (pow c 3)) (* 7650410496 (pow a 3) (pow c 2)) (* 7516192768 a b (pow c 3)) (* 9347006464 a c (pow b 3)) (* 9347006464 b c (pow a 3))) 0)))
(check-sat)
(get-model)
(exit)